webassembly/ejemplos_dzn/6/folder6_json_68.dzn
TERM = { '.', 's(2)', 's(4)', 'local_0', 'local_1', 's(1)', 's(0)', 's(3)'};
null = '.';
s = 6;
n = 10;
ndeps = 1;
max_registers_sz = 4;
NR = 1;
registers = [|'local_0', 's(3)'|];
dependencies = [|'i32.load_2', 'call[function_index(0)]_4'|];
GET_ENUM = { GET1, GET2, GET3, GET4, GET5};
SET_ENUM = { SET1, SET2, SET3, SET4, SET5};
TEE_ENUM = { TEE1, TEE2, TEE3, TEE4, TEE5};
N = 4;
OP = { 'call[function_index(0)]_4', 'i32.const_0', 'i32.load_2', 'local.get_0' };
in_ops = [0, 0, 1, 0 ];
out_ops = [3, 1, 1, 1 ];
in1 = ['.', '.', 's(4)', '.' ];
in2 = ['.', '.', '.', '.' ];
in3 = ['.', '.', '.', '.' ];
out1 = ['s(3)', 's(4)', 's(0)', 'local_1' ];
out2 = ['s(2)', '.', '.', '.' ];
out3 = ['s(1)', '.', '.', '.' ];
comm = [false, false, false, false ];
gas = [1, 1, 1, 1 ];
sz = [1, 1, 1, 1 ];
stor = [true, false, false, false ];
lb = [ 1, 1, 1, 1 ];
ub = [ 6, 6, 6, 6 ];
startstack = [ null, null, null, null, null, null, null, null, null, null ];
endstack = [ 's(3)', 's(2)', 's(1)', 's(0)', 'local_1', null, null, null, null, null ];
